1
1000
120
499 1
498 1
498 1
495 1
490 1
486 1
482 1
480 1
478 1
478 1
462 1
434 1
434 1
432 1
430 1
428 1
427 1
419 1
414 1
410 1
408 1
408 1
400 1
397 1
395 1
394 1
394 1
391 1
387 1
387 1
386 1
382 1
375 1
370 1
368 1
366 1
364 1
362 1
362 1
361 1
357 1
356 1
356 1
353 1
352 1
347 1
346 1
345 1
344 1
344 1
340 1
338 1
336 1
336 1
330 1
329 1
327 1
326 1
324 1
323 1
314 1
314 1
305 1
304 1
304 1
300 1
297 1
296 1
295 1
293 1
292 1
292 1
289 1
288 1
288 1
285 1
284 1
284 1
282 1
281 1
281 1
280 1
278 1
277 1
276 1
276 1
276 1
275 1
274 1
272 1
271 1
270 1
270 1
269 1
269 1
263 1
262 1
262 1
262 1
261 1
259 1
259 1
256 1
256 1
254 1
253 1
252 1
252 1
252 1
252 1
251 1
251 1
251 1
251 1
250 1
250 1
250 1
250 1
250 1
250 1
